language Essence 1.3

letting class be function(1 --> 2, 2 --> 1, 3 --> 1, 4 --> 1, 5 --> 2, 6 --> 2)
letting deck_length be 38
letting deck_width be 74
letting length be function(1 --> 5, 2 --> 16, 3 --> 10, 4 --> 1, 5 --> 1, 6 --> 5)
letting n_classes be 2
letting n_containers be 6
letting separation be function({1, 2} --> 68)
letting width be function(1 --> 6, 2 --> 27, 3 --> 1, 4 --> 22, 5 --> 1, 6 --> 2)
